2000 1170
7
101 0.0,0.0 990.0,0.0 990.0,676.0 0.0,676.0
102 0.0,0.0 399.0,0.0 399.0,578.0 0.0,578.0
103 0.0,0.0 1535.0,0.0 1535.0,991.0 0.0,991.0
104 0.0,0.0 1636.0,0.0 1636.0,32.0 0.0,32.0
105 0.0,0.0 1897.0,0.0 1897.0,599.0 0.0,599.0
106 0.0,0.0 817.0,0.0 817.0,1054.0 0.0,1054.0
107 0.0,0.0 1318.0,0.0 1318.0,483.0 0.0,483.0
108 0.0,0.0 878.0,0.0 878.0,160.0 0.0,160.0